c read Graph
c width = 529
c time = 1090 ms
c width = 28
c time = 1391 ms
c width = 27
c time = 1830 ms
c width = 25
c time = 1949 ms
c width = 24
c time = 2248 ms
c width = 23
c time = 2723 ms
c width = 22
c time = 4562 ms
c width = 21
c time = 7512 ms
c width = 21
c time = 119927 ms
s td 768 22 804
b 1 1 53 651
b 2 2 469 550 803
b 3 11 469 550 681 799 803
b 4 11 30 97 469 550 681 799
b 5 11 30 97 469 497 681 799
b 6 30 97 469 497 531 681 799
b 7 16 97 469 497 531 681 799
b 8 16 97 497 531 681 746 799
b 9 16 222 497 531 681 746 799
b 10 16 222 405 497 531 612 681 746
b 11 16 152 222 318 405 497 531 612 634 674 746
b 12 152 318 405 612 670 674
b 13 96 612 670 674
b 14 152 318 405 595 670
b 15 137 152 405 595 670
b 16 44 137 152 595 670
b 17 44 137 595 670 752
b 18 44 428 595 670 752
b 19 44 428 626 670 752
b 20 428 609 626 670
b 21 44 428 516 626 752
b 22 428 516 580 626
b 23 44 516 591 626 752
b 24 44 337 516 591 752
b 25 127 337 516 591
b 26 516 591 626 663
b 27 428 595 670 759
b 28 44 137 216 752
b 29 152 222 318 497 531 610 612 674
b 30 222 610 612 621
b 31 152 318 497 531 581 610 674
b 32 152 318 497 503 531 581 610
b 33 152 260 318 503 531 581 610
b 34 152 260 318 411 503 581 610
b 35 101 260 318 411 503 581 610
b 36 101 260 411 503 566 581 610
b 37 101 377 411 503 566 610
b 38 370 377 411 503 566
b 39 199 370 377 503
b 40 377 503 610 749
b 41 101 377 427 610
b 42 101 192 260 566 581 610
b 43 192 260 581 636
b 44 192 260 498 566
b 45 260 293 411 566
b 46 16 152 222 263 318 344 405 406 497 531 593 634 674 746
b 47 16 41 152 263 318 344 405 406 497 531 547 593 634 674 746
b 48 41 263 270 405 547 593
b 49 41 263 270 405 447
b 50 41 237 270 405 447
b 51 82 237 270 405
b 52 237 270 447 546
b 53 16 41 152 263 318 344 406 486 497 531 547 593 634 674 746
b 54 263 406 486 547 583 674
b 55 263 486 583 623 674
b 56 486 583 623 674 737
b 57 3 583 674 737
b 58 157 583 623 737
b 59 16 28 41 43 152 154 263 318 344 382 394 406 486 495 497 531 547 593 627 634 746
b 60 28 41 43 154 344 365 382 394 406 486 495 547 593 627
b 61 28 41 327 344 365 382 394 406 486 495 593 627
b 62 327 344 365 382 406 435 486 495 627
b 63 122 327 365 435 495
b 64 320 382 406 435 627
b 65 158 320 406 435 627
b 66 158 320 406 435 765
b 67 158 406 553 765
b 68 158 320 400 435 765
b 69 158 250 400 435 765
b 70 158 250 305 765
b 71 158 204 250 400 435
b 72 204 250 400 435 696
b 73 56 204 400 435 696
b 74 56 204 578 696
b 75 37 56 400 696
b 76 204 250 276 696
b 77 46 158 204 250
b 78 28 327 382 394 525 593 627
b 79 28 121 327 382 525 593 627
b 80 121 327 382 474 525 593 627
b 81 26 121 327 382 474 525 593
b 82 26 121 327 474 525 593 729
b 83 24 474 525 729
b 84 26 327 525 593 723 729
b 85 525 576 723 729
b 86 179 525 593 723
b 87 26 121 327 474 715 729
b 88 121 390 474 715 729
b 89 354 390 474 729
b 90 26 327 561 715
b 91 121 147 327 715
b 92 28 43 154 365 394 407 547
b 93 28 43 154 278 365 407 547
b 94 43 154 164 278 365 407 547
b 95 35 154 164 278 365 407 547
b 96 35 164 278 365 407 547 616
b 97 4 164 407 616
b 98 35 278 365 407 567 616
b 99 35 365 567 777
b 100 278 365 527 567
b 101 35 308 407 567 616
b 102 308 388 407 616
b 103 150 164 278 365 547 616
b 104 150 164 315 547
b 105 150 164 307 616
b 106 16 28 41 43 152 154 263 318 344 382 394 486 495 497 531 584 627 634 746
b 107 41 162 344 486 584
b 108 16 28 43 55 120 152 154 196 263 318 333 382 394 441 495 497 531 584 627 634 736 746
b 109 16 28 43 55 120 152 154 196 318 333 382 394 441 495 497 531 584 627 634 702 736 746
b 110 16 28 43 55 120 152 154 196 318 382 394 441 497 531 584 619 622 627 634 702 736 746
b 111 16 43 55 120 152 154 196 318 382 441 497 531 584 619 622 627 634 702 736 746 774 795
b 112 16 43 55 120 152 154 196 318 382 441 524 531 584 619 622 627 634 702 736 746 774 795
b 113 43 120 154 196 318 382 420 441 467 524 531 584 619 622 627 634 702 736 746 774 786 795
b 114 120 154 196 318 382 420 441 467 524 531 584 619 622 627 634 702 736 746 774 786 795 804
b 115 340 382 420 441 467 524 531 584 619 622 627 634 702 736 746 774 786 795 804
b 116 340 467 598 619 634 795
b 117 328 340 598 634 795
b 118 328 340 509 598 795
b 119 10 509 598 795
b 120 328 509 598 613
b 121 120 196 467 470 627 786 804
b 122 120 347 467 470 627 786 804
b 123 120 126 347 467 470 786 804
b 124 126 347 467 470 720 786 804
b 125 126 397 467 720
b 126 116 126 347 470 720 786 804
b 127 116 281 470 786 804
b 128 116 281 470 508 786
b 129 5 116 281 508
b 130 116 126 182 347 720
b 131 126 182 347 445
b 132 126 160 182 720
b 133 116 182 265 347
b 134 43 154 382 420 467 524 537 619 622 627 634 736 774 786
b 135 43 154 382 420 537 592 627
b 136 154 202 382 420 537 592 627
b 137 202 382 420 537 592 627 706
b 138 202 420 537 592 627 706 753
b 139 202 420 504 537 592 627 753
b 140 244 504 537 592 627 753
b 141 210 244 504 537
b 142 244 504 592 650 753
b 143 165 244 504 650
b 144 244 592 650 686
b 145 480 592 650 753
b 146 202 420 706 717 753
b 147 420 639 706 717
b 148 202 213 420 717
b 149 420 467 537 571 634 736 774 786
b 150 241 467 537 571 634 774
b 151 241 571 617 634 774
b 152 241 571 617 634 707
b 153 393 571 617 707
b 154 49 571 634 707
b 155 133 420 524 537 619 622 634 736
b 156 133 234 524 537 619 634
b 157 133 234 524 634 689
b 158 133 234 524 548 689
b 159 234 324 548 689
b 160 16 55 152 318 441 524 702 722 746 774 795
b 161 16 152 272 318 722 746 795
b 162 16 152 272 318 490 722 746
b 163 16 212 272 318 490 722 746
b 164 16 212 272 490 587 722 746
b 165 16 212 228 272 490 587 722
b 166 228 272 490 605
b 167 16 205 212 228 490 587 722
b 168 119 205 212 587 722
b 169 119 212 391 722
b 170 75 119 587 722
b 171 16 72 205 212 228 490
b 172 72 92 205 228 490
b 173 72 76 92 490
b 174 72 92 205 798
b 175 65 92 228 490
b 176 55 152 235 318 441 524 702 722 774
b 177 55 146 152 235 318 441 702 774
b 178 146 604 702 774
b 179 55 146 152 235 318 441 688
b 180 55 146 152 235 318 654 688
b 181 55 146 235 318 465 654 688
b 182 146 235 271 318 465 654 688
b 183 146 235 271 465 640 654 688
b 184 146 235 271 429 465 640 654
b 185 429 465 640 654 664
b 186 106 465 654 664
b 187 640 654 664 714
b 188 429 465 614 664
b 189 167 235 429 465
b 190 146 271 366 640 688
b 191 146 271 366 483
b 192 146 267 366 688
b 193 235 255 524 702 722
b 194 21 235 255 524
b 195 16 295 497 531 702 746 774 795
b 196 180 295 702 795
b 197 16 295 497 531 551 746 774
b 198 16 295 472 497 531 551 774
b 199 16 295 349 472 531 551 774
b 200 16 178 295 349 472 551 774
b 201 18 178 295 349 472 551 774
b 202 18 178 295 349 472 519 551
b 203 295 349 472 487 519 551
b 204 139 349 487 519 551
b 205 103 139 487 551
b 206 198 295 472 487
b 207 295 487 551 560
b 208 178 240 349 519
b 209 18 178 295 375 472 519
b 210 178 375 519 762
b 211 18 178 375 573
b 212 28 43 154 394 457 619 622
b 213 28 154 394 443 457 619 622
b 214 154 394 417 443 457 619 622
b 215 154 398 417 443 457 619 622
b 216 398 417 443 457 619 622 792
b 217 54 417 443 457 619 622 792
b 218 54 291 457 619
b 219 54 185 417 457 792
b 220 7 54 185 457
b 221 136 185 417 792
b 222 185 413 417 457
b 223 398 432 443 622 792
b 224 285 432 443 622
b 225 19 398 432 622
b 226 16 28 43 55 120 152 154 196 263 318 333 382 394 441 495 497 531 556 627 704 736 746
b 227 16 28 43 55 120 152 154 196 314 318 333 382 394 441 497 531 556 627 704 736 746
b 228 16 28 43 55 120 152 154 196 314 318 333 382 394 441 497 531 556 579 627 736 746 785
b 229 16 28 43 55 90 120 154 196 314 333 382 394 441 497 531 556 579 627 736 746 785
b 230 16 55 90 257 314 441 579 746
b 231 257 314 579 601
b 232 16 55 90 257 441 746 794
b 233 55 90 257 422 441 746 794
b 234 55 90 257 410 422 441 794
b 235 55 90 257 294 410 422 794
b 236 90 257 294 410 422 423 794
b 237 294 423 791 794
b 238 67 90 257 294 422 423
b 239 67 294 423 431
b 240 67 90 197 294
b 241 257 410 422 423 543 794
b 242 257 422 502 543
b 243 401 410 423 543 794
b 244 401 423 760 794
b 245 257 332 410 543
b 246 28 43 70 90 120 154 196 277 314 333 382 394 497 531 556 579 627 736 785
b 247 28 70 90 277 314 333 382 394 497 531 556 579 627 632 736 761 785
b 248 28 70 90 183 277 314 333 382 394 497 531 556 579 627 632 736 761 785
b 249 90 183 274 314 333 497 531 632 761 785
b 250 274 497 531 590 785
b 251 274 279 497 590 785
b 252 232 274 279 590 785
b 253 221 232 279 590 785
b 254 221 232 279 590 680
b 255 232 279 471 590 680
b 256 232 243 279 471 590
b 257 232 243 245 279 590
b 258 232 243 245 279 742
b 259 232 245 279 444 742
b 260 232 233 279 444 742
b 261 125 232 233 444
b 262 232 233 279 346
b 263 36 233 444 742
b 264 169 245 444 742
b 265 243 245 453 742
b 266 90 118 183 274 333 632 761
b 267 90 118 274 333 669 761
b 268 118 286 333 669 761
b 269 206 286 669 761
b 270 286 333 371 761
b 271 90 274 506 669
b 272 28 70 183 277 333 382 394 556 579 627 632 651 736 761 785
b 273 28 183 382 394 627 651 699
b 274 28 183 382 627 651 666 699
b 275 183 382 511 627 651 666 699
b 276 23 183 382 511 651 666 699
b 277 23 183 511 586 651 666 699
b 278 23 476 511 586 651 666 699
b 279 266 476 511 586 699
b 280 45 266 476 511
b 281 266 511 631 699
b 282 266 552 586 699
b 283 23 476 491 651 666
b 284 23 53 491 651
b 285 61 491 651 666
b 286 148 183 586 699
b 287 28 70 183 277 333 334 394 556 579 632 651 736 761 785
b 288 28 277 334 394 475 632 651 736 761
b 289 277 475 651 691 736
b 290 28 394 475 632 685
b 291 70 316 333 334 579 632
b 292 248 316 333 334 579
b 293 187 248 316 333 334
b 294 62 187 248 334
b 295 141 187 333 334
b 296 70 163 183 277 333 334 556 651 761 785
b 297 163 246 334 556 761
b 298 70 163 183 333 523 785
b 299 163 231 333 523 785
b 300 163 231 333 523 600
b 301 104 163 333 600
b 302 163 231 530 600
b 303 43 70 120 154 196 277 770
b 304 43 70 120 154 277 687 770
b 305 43 70 154 277 389 687 770
b 306 70 154 277 357 389 687 770
b 307 70 277 287 357 389 687 770
b 308 277 287 357 378 770
b 309 57 277 378 770
b 310 251 287 378 770
b 311 277 357 378 789
b 312 70 214 277 287 357 389 687
b 313 214 287 389 687 767
b 314 214 287 687 727 767
b 315 117 287 727 767
b 316 70 214 653 687
b 317 63 152 314 318 497 531 579 785
b 318 63 152 318 497 531 579 667
b 319 63 152 300 318 497 531 667
b 320 63 143 152 300 318 497 667
b 321 63 86 143 300 318 497 667
b 322 38 63 86 143 300 318 667
b 323 38 63 86 143 300 603 667
b 324 38 63 300 557 603 667
b 325 247 300 557 667
b 326 300 350 557 603
b 327 143 300 438 603
b 328 38 63 86 143 603 694
b 329 86 143 448 603 694
b 330 86 98 448 694
b 331 38 63 402 694
b 332 33 63 86 694
b 333 63 314 544 785
b 334 28 43 55 120 152 154 196 259 314 318 382 394 441 497 531 627 704 746
b 335 55 152 259 318 441 497 531 704 746 775
b 336 55 152 259 441 497 531 679 704 746 775
b 337 55 152 259 497 531 620 679 704 746 775
b 338 55 152 209 259 531 620 679 704 746 775
b 339 55 209 253 620 679 775
b 340 152 209 369 620 679 775
b 341 209 473 531 620 679 775
b 342 28 43 120 154 196 259 314 382 394 517 627
b 343 28 43 120 196 259 314 382 394 460 517 627
b 344 28 43 120 259 309 314 382 394 460 517 627
b 345 28 43 120 145 259 309 314 394 460 517 627
b 346 145 309 314 460 517 658
b 347 145 309 460 517 529 627
b 348 43 145 259 309 460 517 751
b 349 114 120 145 309 460 517
b 350 145 236 309 394 460 517
b 351 222 263 344 406 593 745
b 352 222 263 344 745 790
b 353 222 344 568 745 790
b 354 193 222 568 745
b 355 568 712 745 790
b 356 405 489 612 681
b 357 11 30 97 481 550 681
b 358 30 97 298 481 550
b 359 30 298 550 733
b 360 97 481 681 718
b 361 11 74 481 681
b 362 30 469 550 757
b 363 358 469 799 803
b 364 16 28 43 55 120 152 154 184 196 263 318 382 394 441 495 497 531 556 585 627 704 746
b 365 16 28 43 55 120 154 184 196 263 318 382 394 441 495 497 531 556 585 627 638 704 746
b 366 16 28 43 55 120 154 184 196 318 382 394 441 495 497 531 556 575 585 627 638 704 746
b 367 28 43 55 120 154 184 196 318 353 382 394 441 495 497 531 556 575 585 627 638 704 746
b 368 28 43 120 154 196 353 382 394 495 520 556 575 585 627 646 704
b 369 28 120 196 313 353 382 394 495 520 556 575 585 627 646 647 704
b 370 313 353 495 510 520 556 646 647
b 371 130 353 510 556 646 647
b 372 130 353 459 510 556
b 373 130 353 459 510 697
b 374 130 353 463 697
b 375 130 229 459 697
b 376 28 120 196 313 394 495 520 556 575 585 594 646 647 704
b 377 313 520 594 704 771
b 378 28 120 196 313 326 394 495 520 556 575 585 594 646 647
b 379 313 326 430 495 556 575 594 647
b 380 326 430 556 575 647 678
b 381 225 430 556 575 678
b 382 225 258 430 556 678
b 383 48 225 258 430
b 384 227 258 430 556
b 385 326 495 520 556 585 594 625 646
b 386 326 496 556 585 625 646
b 387 458 496 556 585 625
b 388 458 496 585 625 637
b 389 73 496 585 637
b 390 458 496 569 637
b 391 28 120 196 326 386 394 594
b 392 28 120 172 196 326 386 594
b 393 120 172 196 326 386 594 676
b 394 172 196 326 386 570 594 676
b 395 326 570 659 676
b 396 172 196 317 386 570 594 676
b 397 172 176 196 317 386 594
b 398 172 176 317 594 683
b 399 176 317 534 594 683
b 400 317 437 534 683
b 401 317 386 570 676 740
b 402 220 386 676 740
b 403 335 570 676 740
b 404 317 386 740 758
b 405 120 196 313 382 452 627 647
b 406 196 313 382 387 452 627 647
b 407 313 382 387 452 563 627 647
b 408 161 313 382 387 452 563 647
b 409 161 313 322 387 452 563 647
b 410 215 322 452 563
b 411 161 313 322 387 421 452
b 412 313 387 421 564
b 413 161 256 322 421 452
b 414 161 175 256 421
b 415 161 313 421 698
b 416 218 313 322 387 563 647
b 417 218 322 563 588
b 418 218 224 563 647
b 419 43 120 154 196 520 608 646
b 420 43 120 196 449 520 608 646
b 421 120 196 449 520 572 608 646
b 422 196 273 449 520 572 608 646
b 423 171 273 449 520 572 608 646
b 424 171 261 449 646
b 425 17 171 273 449 520 572 608
b 426 17 59 171 449 572
b 427 59 123 449 572
b 428 17 51 59 572
b 429 59 140 171 449
b 430 17 273 434 520 608
b 431 17 434 520 608 665
b 432 12 17 434 665
b 433 55 303 353 441 497 531 575 638
b 434 55 303 353 441 497 531 754
b 435 55 303 353 425 497 531 754
b 436 303 353 419 425 497 531 754
b 437 303 419 425 497 531 602 754
b 438 303 419 425 531 602 645 754
b 439 177 419 425 645
b 440 303 425 531 602 645 661 754
b 441 52 425 531 645 661 754
b 442 52 425 642 645 661
b 443 124 425 642 645
b 444 52 425 446 642
b 445 52 128 642 661
b 446 303 602 661 730 754
b 447 303 675 730 754
b 448 303 599 602 730
b 449 303 311 575 638
b 450 55 152 184 318 441 585 801
b 451 55 184 318 441 562 585 801
b 452 55 184 201 441 562 585 801
b 453 79 184 201 441 562 585 801
b 454 39 79 184 201 562 585 801
b 455 39 79 184 201 562 684 801
b 456 39 79 184 352 684 801
b 457 39 352 368 801
b 458 8 352 684 801
b 459 79 168 184 201 562 684
b 460 168 184 562 731
b 461 22 168 201 562 684
b 462 22 201 521 684
b 463 34 79 168 184
b 464 113 201 684 801
b 465 6 184 353 638
b 466 16 55 381 441 575 585 638 746
b 467 16 55 100 381 441 575 746
b 468 16 55 100 381 441 482 746
b 469 16 55 100 381 441 482 764
b 470 360 381 482 764
b 471 16 55 100 381 441 477 482 764
b 472 100 381 399 441 477 764
b 473 200 381 399 764
b 474 16 55 93 100 477 482 764
b 475 93 100 262 477
b 476 55 93 372 477 482 764
b 477 93 310 372 477 482 764
b 478 93 275 310 372
b 479 69 310 372 482 764
b 480 68 69 482 764
b 481 93 310 409 477
b 482 134 381 585 638
b 483 394 396 475 632 685
b 484 376 396 475 632 685
b 485 376 396 632 705
b 486 207 376 396 475 685
b 487 207 376 396 475 628
b 488 207 376 396 426 628
b 489 376 396 426 628 788
b 490 338 376 396 426 788
b 491 338 396 644 788
b 492 282 338 426 788
b 493 338 376 396 615
b 494 115 426 628 788
b 495 207 426 478 628
b 496 336 760 794
b 497 173 706 753
b 498 25 704 771
b 499 657 691 736
b 500 513 687 727
b 501 99 675 730
b 502 181 670 759
b 503 47 661 754
b 504 403 654 714
b 505 95 650 686
b 506 640 688 741
b 507 27 639 717
b 508 252 632 685
b 509 412 612 634
b 510 604 648 774
b 511 549 594 683
b 512 85 580 626
b 513 341 579 601
b 514 219 578 696
b 515 60 570 659
b 516 188 569 637
b 517 568 677 712
b 518 415 567 777
b 519 563 588 779
b 520 553 765 800
b 521 552 699 739
b 522 280 550 757
b 523 544 732 785
b 524 159 530 600
b 525 454 529 627
b 526 525 576 695
b 527 87 516 663
b 528 29 509 613
b 529 138 497 620
b 530 450 487 560
b 531 156 486 623
b 532 355 481 718
b 533 319 480 592
b 534 478 628 629
b 535 230 476 666
b 536 351 473 531
b 537 471 541 680
b 538 424 467 804
b 539 223 465 614
b 540 194 459 510
b 541 89 458 625
b 542 446 642 716
b 543 443 619 802
b 544 94 441 679
b 545 438 488 603
b 546 254 437 534
b 547 434 520 755
b 548 428 609 735
b 549 170 427 610
b 550 423 671 791
b 551 421 461 698
b 552 88 419 602
b 553 81 405 489
b 554 401 410 455
b 555 211 400 435
b 556 203 398 792
b 557 397 643 720
b 558 20 396 615
b 559 393 707 756
b 560 42 388 407
b 561 387 574 647
b 562 386 747 758
b 563 339 377 749
b 564 31 376 705
b 565 375 380 573
b 566 342 371 761
b 567 268 370 411
b 568 365 501 527
b 569 360 535 764
b 570 358 479 803
b 571 354 474 635
b 572 352 368 589
b 573 344 442 790
b 574 338 395 644
b 575 335 418 676
b 576 333 558 702
b 577 301 332 543
b 578 328 340 522
b 579 327 383 561
b 580 324 548 719
b 581 239 320 406
b 582 249 318 775
b 583 314 577 658
b 584 314 374 577
b 585 314 374 532
b 586 314 385 532
b 587 313 456 564
b 588 311 575 606
b 589 309 382 796
b 590 303 599 692
b 591 300 350 384
b 592 294 431 780
b 593 293 518 566
b 594 107 287 389
b 595 285 622 655
b 596 282 507 788
b 597 281 607 786
b 598 278 367 547
b 599 277 306 789
b 600 275 310 528
b 601 274 506 725
b 602 273 284 646
b 603 242 272 587
b 604 189 267 366
b 605 149 266 631
b 606 195 265 347
b 607 263 638 641
b 608 262 451 477
b 609 166 260 498
b 610 110 259 751
b 611 257 312 502
b 612 256 345 452
b 613 251 464 770
b 614 248 316 362
b 615 247 557 656
b 616 108 246 556
b 617 151 245 453
b 618 71 243 590
b 619 241 493 617
b 620 217 240 519
b 621 237 546 559
b 622 236 394 743
b 623 235 271 500
b 624 234 524 533
b 625 232 346 363
b 626 231 523 693
b 627 229 697 784
b 628 228 605 738
b 629 227 430 466
b 630 225 678 748
b 631 9 222 621
b 632 221 279 711
b 633 220 468 740
b 634 132 218 224
b 635 216 545 752
b 636 102 215 322
b 637 214 302 653
b 638 213 420 744
b 639 210 504 713
b 640 209 746 782
b 641 207 475 582
b 642 206 286 630
b 643 153 205 212
b 644 204 276 404
b 645 105 202 537
b 646 201 521 690
b 647 200 381 440
b 648 15 199 503
b 649 198 295 361
b 650 196 292 460
b 651 64 193 745
b 652 192 636 652
b 653 185 331 413
b 654 182 445 673
b 655 180 554 795
b 656 179 701 723
b 657 178 762 768
b 658 177 379 645
b 659 109 176 317
b 660 40 172 326
b 661 171 261 728
b 662 169 515 742
b 663 168 731 783
b 664 111 167 429
b 665 165 244 408
b 666 164 307 721
b 667 78 162 584
b 668 80 161 175
b 669 158 305 414
b 670 157 296 737
b 671 154 517 703
b 672 152 186 369
b 673 150 315 763
b 674 148 538 586
b 675 147 715 773
b 676 146 483 542
b 677 143 448 540
b 678 129 141 334
b 679 140 323 449
b 680 139 349 662
b 681 137 595 672
b 682 136 417 778
b 683 134 494 585
b 684 133 624 689
b 685 130 463 505
b 686 127 591 611
b 687 126 160 633
b 688 125 233 289
b 689 124 425 485
b 690 122 436 495
b 691 121 348 390
b 692 119 391 668
b 693 118 325 669
b 694 117 660 767
b 695 116 208 470
b 696 115 426 734
b 697 114 120 781
b 698 113 304 684
b 699 110 269 751
b 700 106 664 700
b 701 104 163 565
b 702 103 226 551
b 703 101 190 581
b 704 84 100 399
b 705 97 298 709
b 706 96 674 776
b 707 93 283 409
b 708 90 373 422
b 709 86 98 155
b 710 82 270 492
b 711 76 92 499
b 712 75 290 722
b 713 74 681 793
b 714 73 392 496
b 715 72 787 798
b 716 14 70 357
b 717 69 191 372
b 718 13 68 482
b 719 67 197 618
b 720 65 439 490
b 721 63 402 416
b 722 62 77 187
b 723 61 356 491
b 724 59 123 536
b 725 57 174 378
b 726 55 253 555
b 727 54 291 682
b 728 52 128 131
b 729 51 66 572
b 730 49 144 571
b 731 48 258 329
b 732 46 250 321
b 733 45 299 511
b 734 44 337 769
b 735 43 58 751
b 736 41 447 649
b 737 39 79 238
b 738 38 343 667
b 739 37 56 512
b 740 36 433 444
b 741 35 308 750
b 742 34 135 184
b 743 33 694 710
b 744 30 726 733
b 745 28 145 484
b 746 26 50 593
b 747 25 288 771
b 748 25 264 797
b 749 25 704 797
b 750 25 264 462
b 751 24 708 729
b 752 23 183 772
b 753 22 539 562
b 754 21 91 255
b 755 19 432 597
b 756 18 32 472
b 757 17 297 608
b 758 16 596 704
b 759 12 330 665
b 760 11 142 799
b 761 10 364 598
b 762 8 766 801
b 763 7 112 457
b 764 6 353 724
b 765 5 508 526
b 766 4 359 616
b 767 3 83 583
b 768 2 469 514
1 284
2 768
2 3
3 760
3 363
3 4
4 362
4 357
4 5
5 6
6 7
7 8
8 9
9 10
10 356
10 11
11 509
11 46
11 12
11 29
12 13
12 14
13 706
14 15
15 681
15 16
16 17
17 28
17 18
18 27
18 19
19 20
19 21
20 548
21 22
21 23
22 512
23 26
23 24
24 734
24 25
25 686
26 527
27 502
28 635
29 30
29 31
30 631
31 32
32 33
33 34
34 35
35 703
35 36
36 45
36 42
36 37
37 40
37 41
37 38
38 567
38 39
39 648
40 563
41 549
42 44
42 43
43 652
44 609
45 593
46 351
46 47
47 53
47 48
48 49
49 736
49 50
50 52
50 51
51 710
52 621
53 59
53 54
54 55
55 531
55 56
56 57
56 58
57 767
58 670
59 106
59 60
60 92
60 61
61 62
61 78
62 64
62 63
63 690
64 581
64 65
65 66
66 67
66 68
67 520
68 555
68 69
69 70
69 71
70 669
71 77
71 72
72 76
72 73
73 75
73 74
74 514
75 739
76 644
77 732
78 79
79 80
80 81
81 746
81 82
82 83
82 87
82 84
83 751
84 85
84 86
85 526
86 656
87 91
87 90
87 88
88 691
88 89
89 571
90 579
91 675
92 93
93 598
93 94
94 95
95 96
96 97
96 103
96 98
97 766
98 100
98 99
98 101
99 518
100 568
101 741
101 102
102 560
103 105
103 104
104 673
105 666
106 108
106 107
107 667
108 226
108 109
109 576
109 110
110 212
110 111
111 195
111 112
112 160
112 113
113 134
113 114
114 538
114 121
114 115
115 116
116 117
117 578
117 118
118 119
118 120
119 761
120 528
121 122
122 123
123 124
124 125
124 126
125 557
126 695
126 130
126 127
127 597
127 128
128 129
129 765
130 132
130 131
130 133
131 654
132 687
133 606
134 155
134 135
134 149
135 136
136 645
136 137
137 138
138 497
138 146
138 139
139 140
140 141
140 142
141 639
142 143
142 144
142 145
143 665
144 505
145 533
146 148
146 147
147 507
148 638
149 150
150 151
151 619
151 152
152 154
152 153
153 559
154 730
155 156
156 624
156 157
157 684
157 158
158 159
159 580
160 161
160 176
161 162
162 163
163 164
164 603
164 165
165 166
165 167
166 628
167 643
167 168
167 171
168 170
168 169
169 692
170 712
171 172
172 175
172 173
172 174
173 711
174 715
175 720
176 193
176 177
177 178
177 179
178 510
179 180
180 181
181 182
182 623
182 183
183 506
183 190
183 184
184 189
184 185
185 186
185 188
185 187
186 700
187 504
188 539
189 664
190 192
190 191
191 676
192 604
193 194
194 754
195 196
195 197
196 655
197 198
198 199
199 200
200 201
201 756
201 202
202 208
202 209
202 203
203 207
203 206
203 204
204 680
204 205
205 702
206 649
207 530
208 620
209 210
209 211
210 657
211 565
212 213
213 543
213 214
214 215
215 216
216 556
216 223
216 217
217 218
217 219
218 727
219 220
219 222
219 221
220 763
221 682
222 653
223 225
223 224
224 595
225 755
226 758
226 364
226 227
227 334
227 228
228 317
228 229
229 230
229 246
230 231
230 232
231 513
232 233
233 708
233 234
234 235
235 236
236 237
236 238
236 241
237 550
238 240
238 239
239 592
240 719
241 245
241 242
241 243
242 611
243 554
243 244
244 496
245 577
246 303
246 247
247 248
248 249
248 272
249 250
249 266
250 251
251 252
252 253
253 632
253 254
254 255
255 537
255 256
256 618
256 257
257 258
258 265
258 259
259 264
259 260
260 263
260 261
260 262
261 688
262 625
263 740
264 662
265 617
266 267
267 693
267 268
267 271
268 269
268 270
269 642
270 566
271 601
272 273
272 287
273 274
274 275
275 276
276 752
276 277
277 286
277 278
278 535
278 279
278 283
279 280
279 281
279 282
280 733
281 605
282 521
283 284
283 285
285 723
286 674
287 291
287 288
287 296
288 290
288 289
289 499
290 508
290 483
291 292
292 614
292 293
293 294
293 295
294 722
295 678
296 297
296 298
297 616
298 299
299 626
299 300
300 301
300 302
301 701
302 524
303 304
304 305
305 306
306 716
306 307
307 594
307 308
307 312
308 309
308 310
308 311
309 725
310 613
311 599
312 316
312 313
313 314
314 500
314 315
315 694
316 637
317 318
317 333
318 319
319 320
320 321
321 322
322 738
322 323
323 327
323 324
323 328
324 325
324 326
325 615
326 591
327 545
328 332
328 331
328 329
329 677
329 330
330 709
331 721
332 743
333 523
334 335
334 342
335 582
335 336
336 544
336 337
337 529
337 338
338 640
338 340
338 341
338 339
339 726
340 672
341 536
342 671
342 343
343 650
343 344
344 589
344 345
345 745
345 349
345 350
345 347
345 346
345 348
346 583
347 525
348 735
348 610
349 697
350 622
351 352
352 573
352 353
353 354
353 355
354 651
355 517
356 553
357 361
357 360
357 358
358 705
358 359
359 744
360 532
361 713
362 522
363 570
364 450
364 365
365 607
365 366
366 466
366 367
367 368
367 465
367 433
368 369
368 419
369 405
369 376
369 370
370 371
371 372
372 540
372 373
373 375
373 374
374 685
375 627
376 378
376 377
377 498
378 391
378 379
378 385
379 380
380 381
381 630
381 382
382 383
382 384
383 731
384 629
385 386
386 387
387 541
387 388
388 389
388 390
389 714
390 516
391 392
392 660
392 393
393 394
394 395
394 396
395 515
396 401
396 397
397 659
397 398
398 511
398 399
399 400
400 546
401 402
401 403
401 404
402 633
403 575
404 562
405 406
406 561
406 407
407 408
408 409
409 410
409 416
409 411
410 636
411 415
411 412
411 413
412 587
413 612
413 414
414 668
415 551
416 417
416 418
417 519
418 634
419 420
420 421
421 422
422 602
422 423
423 425
423 424
424 661
425 757
425 426
425 430
426 428
426 427
426 429
427 724
428 729
429 679
430 547
430 431
431 432
432 759
433 449
433 434
434 435
435 436
436 437
437 552
437 438
438 439
438 440
439 658
440 503
440 446
440 441
441 442
442 443
442 444
442 445
443 689
444 542
445 728
446 448
446 447
447 501
448 590
449 588
450 451
451 452
452 453
453 454
454 737
454 455
455 464
455 459
455 456
456 458
456 457
457 572
458 762
459 463
459 460
459 461
460 663
461 753
461 462
462 646
463 742
464 698
465 764
466 467
466 482
467 468
468 469
469 471
469 470
470 569
471 474
471 472
472 704
472 473
473 647
474 475
474 476
475 608
476 477
477 481
477 478
477 479
478 600
479 717
479 480
480 718
481 707
482 683
483 484
484 485
484 486
485 564
486 641
486 487
487 488
488 495
488 489
489 494
489 490
490 492
490 491
490 493
491 574
492 596
493 558
494 696
495 534
498 749
498 747
583 584
584 585
585 586
610 699
748 750
748 749
